proyfinal/src/viki/013/experimentInOfficeAgust.take6.output/0a54e762-2cf5-485e-8d75-3ba8b366c284.als.dat
{'cnf.clauses': '118081',
 'cnf.totvars': '69608',
 'conflict literals': '19',
 'conflicts': '12',
 'decisions': '4664',
 'memused.mb': '15.97',
 'outcome': 'UNSAT',
 'propagations': '28685',
 'restarts': '1',
 'solver.msecs': 26,
 'task.msecs': 85}
