proyfinal/src/viki/013/experimentInOfficeAgust.take6.output/0a54e762-2cf5-485e-8d75-3ba8b366c284.als.out
Reading from standard input... Use '--help' for help.
============================[ Problem Statistics ]=============================
|                                                                             |
|  Number of variables:         69608                                         |
|  Number of clauses:          118081                                         |
|  Parse time:                   0.02 s                                       |
|                                                                             |
============================[ Search Statistics ]==============================
| Conflicts |          ORIGINAL         |          LEARNT          | Progress |
|           |    Vars  Clauses Literals |    Limit  Clauses Lit/Cl |          |
===============================================================================
===============================================================================
restarts              : 1
conflicts             : 12             (451 /sec)
decisions             : 4664           (0.00 % random) (175444 /sec)
propagations          : 28685          (1079033 /sec)
conflict literals     : 19             (0.00 % deleted)
Memory used           : 15.97 MB
CPU time              : 0.026584 s

UNSATISFIABLE
